c description: Random 3-CNF over 20 variables and 85 clauses
c generator: CNFgen (0.9.2)
c copyright: (C) 2012-2022 Massimo Lauria <massimo.lauria@uniroma1.it>
c url: https://massimolauria.net/cnfgen
c command line: cnfgen --output CNF_4.28/20_bit_85_455.cnf randkcnf 3 20 85
c
p cnf 20 85
-2 -9 -19 0
-1 -4 10 0
1 10 -18 0
7 15 -20 0
-5 13 -17 0
6 11 -14 0
9 12 13 0
-12 -14 -17 0
12 17 18 0
4 8 20 0
3 -13 19 0
-3 7 14 0
1 10 -12 0
-3 -5 13 0
6 -7 10 0
-2 -12 17 0
1 -6 9 0
-1 9 12 0
2 -4 -14 0
7 13 20 0
-3 8 -19 0
-13 18 20 0
2 -6 19 0
8 13 16 0
5 10 -20 0
12 14 -20 0
-12 13 -20 0
-1 -5 9 0
-14 -15 -20 0
2 -9 10 0
-9 -15 18 0
-5 -15 -19 0
-4 15 20 0
1 15 19 0
-2 8 10 0
2 -9 -20 0
-1 6 12 0
-4 -19 20 0
4 -10 -13 0
-3 8 -16 0
-1 -2 3 0
-15 -17 -20 0
1 -11 16 0
-9 16 -19 0
2 10 -15 0
10 12 20 0
-7 -11 13 0
1 -7 14 0
1 10 12 0
1 9 -16 0
3 11 17 0
-6 15 -20 0
-5 10 -20 0
4 10 -17 0
-12 -14 -15 0
-7 10 -20 0
-2 3 -10 0
10 -17 -18 0
5 6 18 0
-1 -7 -9 0
-1 5 -12 0
-6 15 18 0
10 15 16 0
7 -9 19 0
-1 -6 11 0
14 17 -18 0
10 -18 20 0
-1 4 -10 0
-6 9 15 0
-6 -11 16 0
-2 -10 -18 0
-1 -11 -19 0
4 -8 -14 0
5 16 17 0
-1 -2 8 0
5 -12 17 0
-12 13 -15 0
2 6 -19 0
-2 -5 8 0
5 -7 -15 0
-11 13 16 0
-7 -10 19 0
3 -14 -17 0
7 -8 -11 0
2 -4 8 0
